p wcnf 7 27 121
121 1 2 0
121 1 3 0
121 1 4 0
121 1 5 0
121 1 6 0
121 1 7 0
121 2 3 0
121 2 4 0
121 2 5 0
121 2 7 0
121 3 4 0
121 3 5 0
121 3 6 0
121 3 7 0
121 4 5 0
121 4 6 0
121 4 7 0
121 5 6 0
121 5 7 0
121 6 7 0
14 -1 0
16 -2 0
16 -3 0
17 -4 0
18 -5 0
19 -6 0
20 -7 0
